;  time  = 600
;  chars = 724
;  score = 0.8880816200340084
(set-logic QF_FP)
(declare-const x0 (_ FloatingPoint 8 24))
(declare-const x1 (_ FloatingPoint 8 24))
(declare-const x2 (_ FloatingPoint 8 24))
(declare-const x3 (_ FloatingPoint 8 24))
(declare-const x4 (_ FloatingPoint 8 24))
(declare-const x5 (_ FloatingPoint 8 24))
(declare-const x6 (_ FloatingPoint 8 24))
(declare-const x7 (_ FloatingPoint 8 24))
(declare-const x8 (_ FloatingPoint 8 24))
(declare-const x9 (_ FloatingPoint 8 24))
(declare-const x10 (_ FloatingPoint 8 24))
(declare-const x11 (_ FloatingPoint 8 24))
(declare-const x12 (_ FloatingPoint 8 24))
(declare-const x13 (_ FloatingPoint 8 24))
(declare-const x14 (_ FloatingPoint 8 24))
(assert (fp.isSubnormal (fp.sub RNE (fp.sub RNE (fp.sub RNE (fp.mul RNE (fp.add RNE x3 (fp.sub RNE (fp.abs (fp.mul RNE x14 x1)) (fp.neg (fp.add RNE (fp.sub RNE x11 x2) (fp.neg x12))))) (fp.sub RNE (fp.sub RNE (fp.neg x14) (fp.mul RNE (fp.mul RNE (fp.mul RNE x8 x8) x12) x4)) (fp.mul RNE (fp.sub RNE (fp.sub RNE (fp.neg x8) (fp.neg x7)) (fp.sub RNE x8 (fp.mul RNE x10 x10))) (fp.mul RNE x9 x0)))) (fp.sub RNE (fp.add RNE (fp.abs (fp.add RNE (fp.mul RNE x3 (fp.abs x14)) x3)) (fp.sub RNE x8 (fp.abs (fp.neg (fp.mul RNE x6 x11))))) (fp.abs (fp.abs x4)))) (fp.neg (fp.sub RNE x3 (fp.sub RNE x14 (fp.mul RNE (fp.neg (fp.sub RNE (fp.add RNE x5 x10) (fp.neg x11))) (fp.sub RNE (fp.abs (fp.abs x5)) x11)))))) (fp.add RNE (fp.neg x12) x10))))
(check-sat)